c CNF
c from Selman's wff generator
p cnf 140  1200
1.0 124 -45 0
1.0 -109 47 0
1.0 54 -38 0
1.0 88 -39 0
1.0 24 78 0
1.0 -71 -109 0
1.0 39 85 0
1.0 -3 -10 0
1.0 -54 108 0
1.0 15 82 0
1.0 119 42 0
1.0 81 -82 0
1.0 19 -112 0
1.0 80 -117 0
1.0 62 44 0
1.0 53 -2 0
1.0 -110 -25 0
1.0 106 -30 0
1.0 72 90 0
1.0 -32 64 0
1.0 -35 -4 0
1.0 -120 29 0
1.0 -72 -140 0
1.0 -2 -14 0
1.0 -39 78 0
1.0 -107 8 0
1.0 97 -99 0
1.0 23 24 0
1.0 27 38 0
1.0 66 -125 0
1.0 -124 -12 0
1.0 -26 72 0
1.0 9 -51 0
1.0 58 16 0
1.0 114 -62 0
1.0 86 -41 0
1.0 -79 85 0
1.0 69 28 0
1.0 40 124 0
1.0 -55 133 0
1.0 43 -56 0
1.0 -71 51 0
1.0 113 116 0
1.0 17 -93 0
1.0 -37 -11 0
1.0 39 -101 0
1.0 84 -55 0
1.0 47 -130 0
1.0 45 -98 0
1.0 9 -23 0
1.0 139 61 0
1.0 -14 71 0
1.0 82 -68 0
1.0 28 -33 0
1.0 -88 -59 0
1.0 -49 -29 0
1.0 127 -133 0
1.0 -16 90 0
1.0 10 15 0
1.0 -85 139 0
1.0 67 -89 0
1.0 122 63 0
1.0 122 33 0
1.0 -61 8 0
1.0 1 52 0
1.0 1 17 0
1.0 31 -60 0
1.0 59 -107 0
1.0 -56 8 0
1.0 -71 3 0
1.0 -36 -30 0
1.0 38 64 0
1.0 115 -45 0
1.0 -62 -85 0
1.0 4 19 0
1.0 125 71 0
1.0 -78 125 0
1.0 128 43 0
1.0 -72 -1 0
1.0 64 123 0
1.0 28 -60 0
1.0 4 138 0
1.0 16 110 0
1.0 40 -116 0
1.0 -100 -116 0
1.0 -19 -46 0
1.0 46 -89 0
1.0 71 -65 0
1.0 125 -20 0
1.0 -17 89 0
1.0 58 -65 0
1.0 -41 -73 0
1.0 -49 60 0
1.0 105 56 0
1.0 -4 -76 0
1.0 140 -126 0
1.0 -5 80 0
1.0 29 -109 0
1.0 34 -87 0
1.0 -20 118 0
1.0 -37 20 0
1.0 76 -12 0
1.0 87 -131 0
1.0 -116 -48 0
1.0 128 44 0
1.0 -12 55 0
1.0 -2 5 0
1.0 -122 52 0
1.0 72 85 0
1.0 -97 32 0
1.0 -22 -101 0
1.0 -8 -60 0
1.0 104 -119 0
1.0 34 112 0
1.0 116 -138 0
1.0 -49 -7 0
1.0 -91 135 0
1.0 -27 73 0
1.0 34 80 0
1.0 140 -24 0
1.0 -2 46 0
1.0 18 -97 0
1.0 -94 127 0
1.0 -133 -65 0
1.0 -60 -109 0
1.0 -42 -81 0
1.0 -20 41 0
1.0 -64 11 0
1.0 -57 -58 0
1.0 15 -31 0
1.0 -17 16 0
1.0 -81 -92 0
1.0 -60 -84 0
1.0 25 81 0
1.0 121 11 0
1.0 -22 -44 0
1.0 102 -71 0
1.0 -101 -79 0
1.0 -94 53 0
1.0 4 80 0
1.0 24 120 0
1.0 61 -92 0
1.0 -14 86 0
1.0 56 -32 0
1.0 -44 -134 0
1.0 -77 -64 0
1.0 -51 -110 0
1.0 4 -57 0
1.0 81 62 0
1.0 -13 85 0
1.0 -31 -25 0
1.0 -56 -103 0
1.0 -97 19 0
1.0 82 -16 0
1.0 -125 -14 0
1.0 -70 136 0
1.0 58 14 0
1.0 -99 -84 0
1.0 -109 41 0
1.0 -3 -7 0
1.0 -25 -64 0
1.0 -79 13 0
1.0 27 -81 0
1.0 -77 -21 0
1.0 35 -119 0
1.0 -63 20 0
1.0 60 56 0
1.0 62 -38 0
1.0 102 13 0
1.0 -26 10 0
1.0 91 13 0
1.0 34 115 0
1.0 94 83 0
1.0 103 42 0
1.0 -97 101 0
1.0 -139 -106 0
1.0 -119 16 0
1.0 26 -103 0
1.0 116 63 0
1.0 -38 -23 0
1.0 106 136 0
1.0 -37 -52 0
1.0 13 34 0
1.0 -139 -116 0
1.0 -132 111 0
1.0 -73 36 0
1.0 99 -136 0
1.0 -18 -132 0
1.0 128 132 0
1.0 44 140 0
1.0 33 29 0
1.0 4 -37 0
1.0 7 -130 0
1.0 -25 -4 0
1.0 -139 43 0
1.0 -35 105 0
1.0 97 -49 0
1.0 49 -63 0
1.0 -91 -122 0
1.0 -18 122 0
1.0 -111 -101 0
1.0 -105 -90 0
1.0 -133 97 0
1.0 61 119 0
1.0 28 -94 0
1.0 16 -72 0
1.0 54 -130 0
1.0 -111 -9 0
1.0 -109 -59 0
1.0 9 54 0
1.0 10 -16 0
1.0 -135 75 0
1.0 -28 104 0
1.0 36 -114 0
1.0 104 -69 0
1.0 77 115 0
1.0 -33 92 0
1.0 6 15 0
1.0 -31 68 0
1.0 3 33 0
1.0 -136 4 0
1.0 -117 -82 0
1.0 10 -139 0
1.0 -113 30 0
1.0 121 -111 0
1.0 126 88 0
1.0 15 86 0
1.0 118 -86 0
1.0 89 120 0
1.0 61 124 0
1.0 123 -21 0
1.0 -50 8 0
1.0 119 -7 0
1.0 -94 -17 0
1.0 -103 -20 0
1.0 106 33 0
1.0 -12 -58 0
1.0 42 127 0
1.0 -7 17 0
1.0 -25 79 0
1.0 -86 103 0
1.0 119 -87 0
1.0 106 -134 0
1.0 -27 75 0
1.0 -133 106 0
1.0 92 -111 0
1.0 128 36 0
1.0 115 101 0
1.0 -63 122 0
1.0 -68 108 0
1.0 -101 -2 0
1.0 77 90 0
1.0 -56 134 0
1.0 -104 -19 0
1.0 -54 119 0
1.0 -79 118 0
1.0 100 47 0
1.0 14 -23 0
1.0 -25 -102 0
1.0 126 -29 0
1.0 -131 37 0
1.0 2 -34 0
1.0 137 -91 0
1.0 -38 -60 0
1.0 -101 -100 0
1.0 20 73 0
1.0 34 109 0
1.0 -138 -50 0
1.0 -87 -83 0
1.0 116 -59 0
1.0 -9 127 0
1.0 -46 18 0
1.0 -117 -89 0
1.0 21 139 0
1.0 -107 -61 0
1.0 -110 74 0
1.0 16 -87 0
1.0 -5 71 0
1.0 57 -49 0
1.0 -66 51 0
1.0 139 100 0
1.0 -98 80 0
1.0 1 -8 0
1.0 81 -120 0
1.0 -67 -29 0
1.0 -100 51 0
1.0 -99 5 0
1.0 55 89 0
1.0 -48 106 0
1.0 -45 6 0
1.0 13 -99 0
1.0 79 40 0
1.0 -69 137 0
1.0 48 20 0
1.0 25 -23 0
1.0 -111 97 0
1.0 62 -64 0
1.0 70 -95 0
1.0 53 -26 0
1.0 -66 -85 0
1.0 82 -71 0
1.0 -91 -67 0
1.0 90 25 0
1.0 -122 46 0
1.0 110 103 0
1.0 -57 -21 0
1.0 -47 -16 0
1.0 -101 96 0
1.0 27 -130 0
1.0 -57 26 0
1.0 51 5 0
1.0 -51 5 0
1.0 108 84 0
1.0 -105 39 0
1.0 -55 95 0
1.0 50 -91 0
1.0 81 -88 0
1.0 113 4 0
1.0 9 69 0
1.0 -74 128 0
1.0 72 137 0
1.0 35 -60 0
1.0 -15 30 0
1.0 -121 20 0
1.0 108 -53 0
1.0 -57 61 0
1.0 -130 17 0
1.0 -5 -62 0
1.0 -58 -31 0
1.0 91 -17 0
1.0 47 5 0
1.0 -24 -29 0
1.0 -81 -6 0
1.0 67 34 0
1.0 -50 46 0
1.0 -107 84 0
1.0 -115 100 0
1.0 117 18 0
1.0 22 59 0
1.0 88 138 0
1.0 4 108 0
1.0 -1 87 0
1.0 -133 -105 0
1.0 -49 93 0
1.0 -52 101 0
1.0 -119 51 0
1.0 -100 -46 0
1.0 -83 13 0
1.0 38 -31 0
1.0 -16 -102 0
1.0 65 77 0
1.0 60 51 0
1.0 -139 -98 0
1.0 8 -139 0
1.0 44 -139 0
1.0 11 26 0
1.0 57 -87 0
1.0 48 -10 0
1.0 -86 80 0
1.0 130 -60 0
1.0 -17 25 0
1.0 -23 120 0
1.0 118 -57 0
1.0 83 -88 0
1.0 34 -70 0
1.0 80 122 0
1.0 61 44 0
1.0 103 -57 0
1.0 82 -5 0
1.0 125 -135 0
1.0 -51 -83 0
1.0 -30 128 0
1.0 58 -61 0
1.0 43 -59 0
1.0 103 53 0
1.0 110 54 0
1.0 59 48 0
1.0 43 -45 0
1.0 -127 97 0
1.0 -85 77 0
1.0 -138 85 0
1.0 3 -21 0
1.0 74 17 0
1.0 -70 -75 0
1.0 123 109 0
1.0 -14 36 0
1.0 132 -63 0
1.0 -140 -97 0
1.0 41 77 0
1.0 98 39 0
1.0 -56 -40 0
1.0 -114 -30 0
1.0 -139 4 0
1.0 39 98 0
1.0 -20 30 0
1.0 126 46 0
1.0 -123 -52 0
1.0 -91 80 0
1.0 -119 -47 0
1.0 77 -104 0
1.0 -107 30 0
1.0 127 100 0
1.0 129 -4 0
1.0 49 41 0
1.0 -93 72 0
1.0 11 -83 0
1.0 -130 40 0
1.0 4 -131 0
1.0 -20 88 0
1.0 47 13 0
1.0 17 38 0
1.0 -79 10 0
1.0 -81 -68 0
1.0 -11 124 0
1.0 24 23 0
1.0 -13 67 0
1.0 14 113 0
1.0 -126 52 0
1.0 90 105 0
1.0 115 24 0
1.0 91 -134 0
1.0 -118 88 0
1.0 110 -27 0
1.0 94 -24 0
1.0 137 -54 0
1.0 -105 124 0
1.0 -89 51 0
1.0 -74 2 0
1.0 -136 -125 0
1.0 -73 86 0
1.0 113 140 0
1.0 23 40 0
1.0 94 62 0
1.0 -46 -126 0
1.0 36 -55 0
1.0 -57 34 0
1.0 19 -119 0
1.0 -65 137 0
1.0 -136 18 0
1.0 58 137 0
1.0 59 -40 0
1.0 -25 42 0
1.0 97 13 0
1.0 47 23 0
1.0 2 88 0
1.0 -85 -10 0
1.0 -28 -66 0
1.0 -63 -136 0
1.0 -36 26 0
1.0 -68 42 0
1.0 55 -9 0
1.0 32 102 0
1.0 -49 -44 0
1.0 -54 -61 0
1.0 127 31 0
1.0 27 122 0
1.0 -8 -115 0
1.0 -16 -101 0
1.0 110 136 0
1.0 97 59 0
1.0 -103 133 0
1.0 -54 72 0
1.0 -102 -123 0
1.0 104 -119 0
1.0 93 -30 0
1.0 131 -5 0
1.0 -1 -71 0
1.0 -130 -135 0
1.0 -127 103 0
1.0 -34 -65 0
1.0 -47 30 0
1.0 -8 -33 0
1.0 63 28 0
1.0 33 109 0
1.0 -40 113 0
1.0 -107 -94 0
1.0 -56 -90 0
1.0 -14 75 0
1.0 104 -68 0
1.0 -101 52 0
1.0 -79 -1 0
1.0 110 89 0
1.0 61 133 0
1.0 -86 19 0
1.0 -109 -115 0
1.0 49 35 0
1.0 -103 111 0
1.0 -22 -55 0
1.0 -56 23 0
1.0 111 74 0
1.0 66 70 0
1.0 89 40 0
1.0 15 103 0
1.0 -137 -80 0
1.0 51 -58 0
1.0 112 109 0
1.0 131 -103 0
1.0 -36 -84 0
1.0 -14 -52 0
1.0 92 -126 0
1.0 88 -57 0
1.0 137 103 0
1.0 -21 -66 0
1.0 35 10 0
1.0 -112 70 0
1.0 -13 120 0
1.0 -32 -81 0
1.0 -66 6 0
1.0 -63 117 0
1.0 -80 -3 0
1.0 -69 -84 0
1.0 -93 111 0
1.0 -40 114 0
1.0 -93 -40 0
1.0 -120 65 0
1.0 71 -55 0
1.0 32 -17 0
1.0 -19 -18 0
1.0 101 23 0
1.0 -133 37 0
1.0 -10 -50 0
1.0 -89 21 0
1.0 -86 53 0
1.0 107 -33 0
1.0 -49 61 0
1.0 78 40 0
1.0 -63 64 0
1.0 -101 -70 0
1.0 -120 31 0
1.0 -52 -19 0
1.0 71 111 0
1.0 3 21 0
1.0 -82 5 0
1.0 44 -134 0
1.0 58 10 0
1.0 -80 109 0
1.0 -140 61 0
1.0 80 124 0
1.0 95 -61 0
1.0 82 83 0
1.0 88 -128 0
1.0 -121 100 0
1.0 110 118 0
1.0 -87 -45 0
1.0 -106 95 0
1.0 79 44 0
1.0 -104 102 0
1.0 45 -138 0
1.0 -125 -110 0
1.0 70 81 0
1.0 -59 61 0
1.0 -106 -56 0
1.0 -11 -86 0
1.0 -129 -30 0
1.0 -132 110 0
1.0 108 -65 0
1.0 35 -11 0
1.0 91 62 0
1.0 122 -91 0
1.0 6 103 0
1.0 -48 134 0
1.0 -23 86 0
1.0 55 127 0
1.0 -52 -78 0
1.0 89 31 0
1.0 92 -52 0
1.0 2 62 0
1.0 24 -39 0
1.0 -32 129 0
1.0 74 -97 0
1.0 83 -118 0
1.0 -56 124 0
1.0 15 -128 0
1.0 40 92 0
1.0 13 60 0
1.0 -99 -73 0
1.0 62 -76 0
1.0 -33 -114 0
1.0 -92 134 0
1.0 118 -48 0
1.0 -36 -54 0
1.0 -5 137 0
1.0 57 25 0
1.0 98 23 0
1.0 99 -51 0
1.0 -25 -137 0
1.0 -130 -75 0
1.0 -122 133 0
1.0 -47 57 0
1.0 53 -69 0
1.0 -93 123 0
1.0 6 -130 0
1.0 -41 82 0
1.0 78 60 0
1.0 135 -24 0
1.0 -16 134 0
1.0 -50 -86 0
1.0 -14 -42 0
1.0 25 57 0
1.0 -46 -86 0
1.0 27 -88 0
1.0 8 53 0
1.0 -76 -68 0
1.0 61 -112 0
1.0 -58 -127 0
1.0 29 5 0
1.0 -61 -55 0
1.0 1 77 0
1.0 -25 65 0
1.0 117 25 0
1.0 92 13 0
1.0 -124 17 0
1.0 -4 56 0
1.0 -60 -11 0
1.0 -66 29 0
1.0 -106 -140 0
1.0 65 85 0
1.0 -109 57 0
1.0 -69 96 0
1.0 -113 -55 0
1.0 111 65 0
1.0 75 -93 0
1.0 122 -97 0
1.0 -97 18 0
1.0 102 -99 0
1.0 -15 -14 0
1.0 -110 -64 0
1.0 119 -87 0
1.0 -12 -65 0
1.0 -18 -129 0
1.0 -85 11 0
1.0 29 -21 0
1.0 119 -122 0
1.0 -136 -52 0
1.0 115 -71 0
1.0 17 105 0
1.0 -30 20 0
1.0 8 -61 0
1.0 -72 -130 0
1.0 -11 -54 0
1.0 -36 11 0
1.0 -62 59 0
1.0 -130 45 0
1.0 10 32 0
1.0 -52 9 0
1.0 70 131 0
1.0 -121 -5 0
1.0 -59 -50 0
1.0 -60 -104 0
1.0 23 124 0
1.0 29 8 0
1.0 -40 -52 0
1.0 61 -23 0
1.0 -14 -23 0
1.0 -28 -90 0
1.0 140 107 0
1.0 71 -28 0
1.0 -11 58 0
1.0 -65 -123 0
1.0 35 -15 0
1.0 -38 66 0
1.0 88 -76 0
1.0 26 32 0
1.0 -139 102 0
1.0 129 -123 0
1.0 40 -128 0
1.0 111 117 0
1.0 -131 124 0
1.0 -49 -46 0
1.0 -121 124 0
1.0 16 32 0
1.0 -134 -113 0
1.0 -95 -105 0
1.0 -92 21 0
1.0 137 -27 0
1.0 10 28 0
1.0 73 93 0
1.0 77 -26 0
1.0 -58 90 0
1.0 62 47 0
1.0 12 -15 0
1.0 36 109 0
1.0 136 92 0
1.0 119 34 0
1.0 -126 119 0
1.0 5 25 0
1.0 -114 119 0
1.0 26 6 0
1.0 -20 64 0
1.0 -33 25 0
1.0 117 -106 0
1.0 139 -97 0
1.0 75 -112 0
1.0 136 -61 0
1.0 40 113 0
1.0 -119 -57 0
1.0 120 102 0
1.0 126 -140 0
1.0 105 -72 0
1.0 -29 -63 0
1.0 34 134 0
1.0 -54 -43 0
1.0 16 -3 0
1.0 -59 119 0
1.0 80 45 0
1.0 45 89 0
1.0 -21 84 0
1.0 7 59 0
1.0 52 -55 0
1.0 98 -67 0
1.0 -69 -76 0
1.0 54 -99 0
1.0 4 76 0
1.0 25 86 0
1.0 -30 28 0
1.0 -86 -108 0
1.0 -23 -5 0
1.0 -71 -20 0
1.0 -96 60 0
1.0 19 14 0
1.0 89 -62 0
1.0 7 126 0
1.0 -13 -114 0
1.0 -81 -7 0
1.0 -11 -59 0
1.0 -78 35 0
1.0 95 -69 0
1.0 -82 45 0
1.0 106 -63 0
1.0 48 23 0
1.0 136 -80 0
1.0 86 -116 0
1.0 34 -122 0
1.0 16 -118 0
1.0 -47 -83 0
1.0 77 -18 0
1.0 22 29 0
1.0 38 -108 0
1.0 127 -116 0
1.0 -15 -18 0
1.0 55 107 0
1.0 -112 122 0
1.0 -65 66 0
1.0 -84 -26 0
1.0 54 -46 0
1.0 14 49 0
1.0 -25 130 0
1.0 7 98 0
1.0 -65 48 0
1.0 30 -31 0
1.0 -96 23 0
1.0 48 -94 0
1.0 139 13 0
1.0 62 -120 0
1.0 -110 -115 0
1.0 73 -21 0
1.0 69 -129 0
1.0 20 -87 0
1.0 110 6 0
1.0 -99 -18 0
1.0 -31 -30 0
1.0 10 -122 0
1.0 -97 24 0
1.0 45 -131 0
1.0 -120 -60 0
1.0 -7 -122 0
1.0 -128 133 0
1.0 110 -44 0
1.0 13 -129 0
1.0 -27 127 0
1.0 -81 -120 0
1.0 7 66 0
1.0 -136 -50 0
1.0 -23 49 0
1.0 41 50 0
1.0 94 -52 0
1.0 -41 17 0
1.0 -3 -51 0
1.0 30 70 0
1.0 -135 -64 0
1.0 -114 -36 0
1.0 85 -73 0
1.0 -123 -22 0
1.0 74 -4 0
1.0 20 1 0
1.0 -51 -16 0
1.0 -85 -118 0
1.0 -42 79 0
1.0 115 39 0
1.0 111 -18 0
1.0 -39 28 0
1.0 69 87 0
1.0 -127 85 0
1.0 -49 61 0
1.0 38 -26 0
1.0 -96 -83 0
1.0 -94 -10 0
1.0 53 -57 0
1.0 -85 123 0
1.0 -70 55 0
1.0 139 63 0
1.0 -124 4 0
1.0 -30 -2 0
1.0 -85 89 0
1.0 98 85 0
1.0 -1 -20 0
1.0 -2 -94 0
1.0 -9 42 0
1.0 105 -44 0
1.0 -48 -129 0
1.0 131 -107 0
1.0 -56 44 0
1.0 128 -124 0
1.0 -3 125 0
1.0 -79 -33 0
1.0 -74 62 0
1.0 -106 9 0
1.0 -137 -95 0
1.0 62 -14 0
1.0 -57 36 0
1.0 20 15 0
1.0 140 -106 0
1.0 139 -102 0
1.0 -23 -119 0
1.0 127 -97 0
1.0 -52 -92 0
1.0 -106 33 0
1.0 69 -82 0
1.0 -97 -99 0
1.0 65 136 0
1.0 -97 -58 0
1.0 -37 106 0
1.0 62 -109 0
1.0 -61 118 0
1.0 11 -37 0
1.0 118 -115 0
1.0 74 -136 0
1.0 132 -64 0
1.0 121 56 0
1.0 21 -35 0
1.0 3 47 0
1.0 -25 140 0
1.0 -36 137 0
1.0 -112 1 0
1.0 137 -118 0
1.0 -42 104 0
1.0 19 3 0
1.0 -37 79 0
1.0 -126 35 0
1.0 34 52 0
1.0 -48 18 0
1.0 18 32 0
1.0 10 107 0
1.0 -70 -77 0
1.0 -79 -112 0
1.0 50 108 0
1.0 3 118 0
1.0 -29 -90 0
1.0 -108 -50 0
1.0 -81 -20 0
1.0 -127 1 0
1.0 78 73 0
1.0 -44 -132 0
1.0 -100 -7 0
1.0 -124 34 0
1.0 -124 -105 0
1.0 -14 -45 0
1.0 64 75 0
1.0 -76 44 0
1.0 116 111 0
1.0 -103 20 0
1.0 26 102 0
1.0 136 -23 0
1.0 127 -110 0
1.0 -15 -5 0
1.0 -80 138 0
1.0 42 94 0
1.0 65 55 0
1.0 -74 -10 0
1.0 -111 -113 0
1.0 -135 -129 0
1.0 -99 -14 0
1.0 19 -75 0
1.0 -72 -39 0
1.0 -133 139 0
1.0 -54 -28 0
1.0 -37 32 0
1.0 -4 -54 0
1.0 -43 58 0
1.0 -72 -99 0
1.0 33 -25 0
1.0 -63 20 0
1.0 -19 -69 0
1.0 96 -56 0
1.0 -87 -5 0
1.0 -58 -114 0
1.0 -32 -66 0
1.0 25 74 0
1.0 98 101 0
1.0 -121 -100 0
1.0 -28 -49 0
1.0 -104 129 0
1.0 134 116 0
1.0 89 -88 0
1.0 -14 111 0
1.0 -45 136 0
1.0 97 -117 0
1.0 -76 -100 0
1.0 -9 -6 0
1.0 135 -63 0
1.0 39 -23 0
1.0 -111 -49 0
1.0 20 51 0
1.0 47 117 0
1.0 -93 91 0
1.0 -51 14 0
1.0 20 79 0
1.0 2 54 0
1.0 77 40 0
1.0 89 -135 0
1.0 46 -54 0
1.0 -31 -100 0
1.0 50 -33 0
1.0 46 4 0
1.0 -82 -49 0
1.0 -103 80 0
1.0 -120 10 0
1.0 5 118 0
1.0 32 69 0
1.0 28 -94 0
1.0 126 58 0
1.0 -62 56 0
1.0 -105 35 0
1.0 -115 -69 0
1.0 78 -51 0
1.0 -29 58 0
1.0 -126 132 0
1.0 -86 -28 0
1.0 -86 128 0
1.0 43 60 0
1.0 -95 97 0
1.0 25 -39 0
1.0 90 -44 0
1.0 101 -36 0
1.0 -28 -19 0
1.0 47 -50 0
1.0 -37 -7 0
1.0 -66 9 0
1.0 -105 -21 0
1.0 -59 111 0
1.0 -15 -137 0
1.0 33 24 0
1.0 43 -20 0
1.0 -69 -77 0
1.0 84 80 0
1.0 89 132 0
1.0 12 -118 0
1.0 -88 -136 0
1.0 -133 66 0
1.0 -90 -138 0
1.0 -17 -119 0
1.0 56 -22 0
1.0 102 96 0
1.0 -88 -38 0
1.0 15 -6 0
1.0 1 -108 0
1.0 33 -1 0
1.0 -139 103 0
1.0 -81 -55 0
1.0 -76 12 0
1.0 -108 3 0
1.0 40 50 0
1.0 55 43 0
1.0 10 81 0
1.0 82 -66 0
1.0 -29 -139 0
1.0 -53 -56 0
1.0 68 99 0
1.0 -102 112 0
1.0 21 -104 0
1.0 -6 72 0
1.0 13 -40 0
1.0 106 -84 0
1.0 -82 -129 0
1.0 -45 -69 0
1.0 28 -9 0
1.0 -120 98 0
1.0 -62 44 0
1.0 -115 -68 0
1.0 -108 -2 0
1.0 85 115 0
1.0 104 31 0
1.0 -99 -4 0
1.0 -13 -128 0
1.0 -85 104 0
1.0 -7 -70 0
1.0 -137 -16 0
1.0 18 -50 0
1.0 -25 -105 0
1.0 -136 -10 0
1.0 -14 117 0
1.0 104 55 0
1.0 18 11 0
1.0 80 -126 0
1.0 2 115 0
1.0 -24 78 0
1.0 43 109 0
1.0 -119 -32 0
1.0 8 -74 0
1.0 129 36 0
1.0 46 -72 0
1.0 58 38 0
1.0 -12 102 0
1.0 -40 -57 0
1.0 -26 120 0
1.0 -12 114 0
1.0 -47 15 0
1.0 51 -10 0
1.0 -81 -73 0
1.0 111 -3 0
1.0 104 134 0
1.0 -51 -101 0
1.0 -81 -66 0
1.0 -39 -77 0
1.0 -92 101 0
1.0 -110 22 0
1.0 95 40 0
1.0 42 106 0
1.0 100 64 0
1.0 -25 -94 0
1.0 19 26 0
1.0 103 28 0
1.0 128 -122 0
1.0 4 -14 0
1.0 53 -58 0
1.0 -24 -70 0
1.0 -134 109 0
1.0 -63 -79 0
1.0 -104 40 0
1.0 -67 1 0
1.0 123 -36 0
1.0 -50 -21 0
1.0 79 -107 0
1.0 -36 16 0
1.0 125 78 0
1.0 -16 -30 0
1.0 70 -128 0
1.0 129 -27 0
1.0 -63 -97 0
1.0 41 73 0
1.0 129 124 0
1.0 -69 72 0
1.0 118 36 0
1.0 -25 3 0
1.0 49 -73 0
1.0 -123 111 0
1.0 -68 -109 0
1.0 -42 10 0
1.0 134 17 0
1.0 88 23 0
1.0 -59 -91 0
1.0 -94 11 0
1.0 -83 97 0
1.0 -68 -75 0
1.0 -43 -97 0
1.0 -107 -77 0
1.0 94 9 0
1.0 -32 -90 0
1.0 -41 34 0
1.0 -130 -136 0
1.0 73 59 0
1.0 28 -9 0
1.0 -111 135 0
1.0 109 -50 0
1.0 71 43 0
1.0 10 98 0
1.0 -132 -54 0
1.0 50 -94 0
1.0 -13 81 0
1.0 89 40 0
1.0 -35 114 0
1.0 -24 -108 0
1.0 -10 128 0
1.0 86 -34 0
1.0 88 -30 0
1.0 -124 -125 0
1.0 65 109 0
1.0 -9 59 0
1.0 32 40 0
1.0 7 26 0
1.0 13 -123 0
1.0 16 -103 0
1.0 -132 -92 0
1.0 -77 79 0
1.0 48 5 0
1.0 -63 -87 0
1.0 126 -4 0
1.0 29 19 0
1.0 -1 44 0
1.0 -6 -34 0
1.0 -126 80 0
1.0 18 84 0
1.0 -88 78 0
1.0 -24 79 0
1.0 83 -115 0
1.0 134 -11 0
1.0 54 12 0
1.0 46 130 0
1.0 -69 -31 0
1.0 114 16 0
1.0 -94 -133 0
1.0 -72 37 0
1.0 -12 129 0
1.0 -140 137 0
1.0 -8 9 0
1.0 -139 31 0
1.0 61 37 0
1.0 -53 26 0
1.0 -18 -28 0
1.0 -64 -110 0
1.0 -98 -87 0
1.0 83 -79 0
1.0 88 -123 0
1.0 13 -87 0
1.0 -124 27 0
1.0 53 64 0
1.0 91 25 0
1.0 -134 -122 0
1.0 69 30 0
1.0 -109 59 0
1.0 42 105 0
1.0 -52 16 0
1.0 -42 -97 0
1.0 20 -114 0
1.0 -139 -43 0
1.0 -25 -75 0
1.0 -105 -132 0
1.0 -51 -65 0
1.0 29 -132 0
1.0 -7 135 0
1.0 91 -47 0
1.0 -21 27 0
1.0 70 -66 0
1.0 140 -94 0
1.0 86 -9 0
1.0 -73 -26 0
1.0 17 95 0
1.0 -89 18 0
1.0 65 -74 0
1.0 -101 90 0
1.0 -16 114 0
1.0 -68 29 0
1.0 37 -16 0
1.0 -42 98 0
1.0 -53 114 0
1.0 132 13 0
1.0 87 51 0
1.0 -140 105 0
1.0 78 59 0
1.0 87 -9 0
1.0 -25 29 0
1.0 -127 25 0
1.0 139 -65 0
1.0 78 81 0
1.0 -132 -46 0
1.0 11 -8 0
1.0 -67 36 0
1.0 -45 113 0
1.0 -1 -91 0
1.0 116 -118 0
1.0 -43 -67 0
1.0 8 -9 0
1.0 -55 77 0
1.0 85 136 0
1.0 32 -107 0
1.0 79 -23 0
1.0 113 -139 0
1.0 117 93 0
1.0 19 25 0
1.0 33 -6 0
1.0 82 14 0
1.0 10 24 0
1.0 -130 63 0
1.0 85 120 0
1.0 119 -75 0
1.0 -27 66 0
1.0 -91 -115 0
1.0 120 96 0
1.0 -110 -82 0
1.0 106 -126 0
1.0 48 -135 0
1.0 114 -32 0
1.0 106 -54 0
1.0 120 22 0
1.0 137 -109 0
1.0 65 123 0
1.0 64 126 0
1.0 -112 31 0
1.0 25 -8 0
1.0 -39 60 0
